20	5
0	7	2	5	3	6	4	7	1
1	2	9	12
2	4	8	18	19	13
3	2	19	15
4	2	9	12
5	2	11	15
6	2	19	16
7	4	20	15	18	19
8	2	16	15
9	2	14	8
10	3	13	19	17
11	1	10
12	1	14
13	1	16
14	3	15	11	20
15	1	17
16	1	21
17	1	21
18	1	21
19	1	21
20	1	21
21	0
0	0	0	0	0	0	0
1	9	1	3	5	3	1
2	1	3	1	1	2	4
3	9	1	5	3	2	1
4	8	4	2	5	3	1
5	10	1	5	5	3	5
6	3	5	3	2	2	4
7	5	4	4	3	5	4
8	6	3	3	3	3	2
9	6	3	4	2	5	1
10	5	4	3	5	1	1
11	9	5	3	4	3	1
12	2	5	5	2	3	1
13	7	3	1	5	3	4
14	2	2	5	4	2	4
15	5	2	1	3	1	3
16	10	2	4	4	1	2
17	4	2	1	1	1	2
18	10	1	3	1	2	3
19	10	2	3	2	4	2
20	8	2	5	3	5	3
21	0	0	0	0	0	0
7	7	8	7	6
